(set-info :source |printed by MathSAT|)
(declare-fun |!{%memaddr}| () Int)
(declare-fun |!{%memaddr}.next| () Int)
(declare-fun |!{$(in_main#0)<N>}| () Int)
(declare-fun |!{$(in_main#0)<N>}.next| () Int)
(declare-fun |!{$(in_main#0)<&array>}| () Int)
(declare-fun |!{$(in_main#0)<&array>}.next| () Int)
(declare-fun |!{%mem.0}| () (Array Int Int))
(declare-fun |!{%mem.0}.next| () (Array Int Int))
(declare-fun |!{$(in_main#0)<k>}| () Int)
(declare-fun |!{$(in_main#0)<k>}.next| () Int)
(declare-fun |!{$(in_main#0)<$(in___VERIFIER_nondet_int#1)<h#<__VERIFIER_nondet_int.return>>>}| () Int)
(declare-fun |!{$(in_main#0)<$(in___VERIFIER_nondet_int#3)<h#<__VERIFIER_nondet_int.return>>>}| () Int)
(declare-fun |!{$(in_main#0)<$(in___VERIFIER_nondet_int#4)<h#<__VERIFIER_nondet_int.return>>>}| () Int)
(declare-fun |!{$(in_main#0)<$(in_rec_array_find_left#5)<$temp.1>>}| () Int)
(declare-fun |!{$(in_main#0)<$(in_rec_array_find_left#5)<$tmp>>}| () Int)
(declare-fun |!{$(in_main#0)<$(in_rec_array_find_left#5)<$(in_rec_array_find_right#0)<$temp.1>>>}| () Int)
(declare-fun |!{$(in_main#0)<$(in_rec_array_find_left#5)<$(in_rec_array_find_right#0)<$tmp>>>}| () Int)
(declare-fun |!{$(in_main#0)<$(in_rec_array_find_left#5)<$(in_rec_array_find_right#0)<$(in_rec_array_find_left#0)<$temp.1>>>>}| () Int)
(declare-fun |!{$(in_main#0)<$(in_rec_array_find_left#5)<$(in_rec_array_find_right#0)<$(in_rec_array_find_left#0)<$tmp>>>>}| () Int)
(declare-fun |!{$(in_main#0)<$(in_rec_array_find_left#5)<$(in_rec_array_find_right#0)<$(in_rec_array_find_left#0)<$(in_rec_array_find_right#0)<$temp.1>>>>>}| () Int)
(declare-fun |!{$(in_main#0)<$(in_rec_array_find_left#5)<$(in_rec_array_find_right#0)<$(in_rec_array_find_left#0)<$(in_rec_array_find_right#0)<$tmp>>>>>}| () Int)
(declare-fun !pc () Int)
(declare-fun !pc.next () Int)
(declare-fun rec_array_find_left<0> (Int Int Int Int Int) Int)
(declare-fun |%{$(in_main#0)<$(in_rec_array_find_left#5)<$(in_rec_array_find_right#0)<$(in_rec_array_find_left#0)<$(in_rec_array_find_right#0)<$temp.1>>>>>}#3| () Int)
(declare-fun |%{$(in_main#0)<$(in_rec_array_find_left#5)<$(in_rec_array_find_right#0)<$(in_rec_array_find_left#0)<$(in_rec_array_find_right#0)<$tmp>>>>>}#3| () Int)
(declare-fun |%{$(in_main#0)<$(in_rec_array_find_left#5)<$(in_rec_array_find_right#0)<$(in_rec_array_find_left#0)<$(in_rec_array_find_right#0)<rec_array_find_right.return>>>>>}#3| () Int)
(declare-fun |%{$(in_main#0)<$(in_rec_array_find_left#5)<$(in_rec_array_find_right#0)<$(in_rec_array_find_left#0)<$temp.1>>>>}#3| () Int)
(declare-fun |%{$(in_main#0)<$(in_rec_array_find_left#5)<$(in_rec_array_find_right#0)<$(in_rec_array_find_left#0)<$tmp>>>>}#3| () Int)
(declare-fun |%{$(in_main#0)<$(in_rec_array_find_left#5)<$(in_rec_array_find_right#0)<$(in_rec_array_find_left#0)<rec_array_find_left.return>>>>}#3| () Int)
(declare-fun |%{$(in_main#0)<$(in_rec_array_find_left#5)<$(in_rec_array_find_right#0)<$temp.1>>>}#3| () Int)
(declare-fun |%{$(in_main#0)<$(in_rec_array_find_left#5)<$(in_rec_array_find_right#0)<$tmp>>>}#3| () Int)
(declare-fun |%{$(in_main#0)<$(in_rec_array_find_left#5)<$(in_rec_array_find_right#0)<rec_array_find_right.return>>>}#3| () Int)
(declare-fun |%{$(in_main#0)<$(in_rec_array_find_left#5)<$temp.1>>}#3| () Int)
(declare-fun |%{$(in_main#0)<$(in_rec_array_find_left#5)<$tmp>>}#3| () Int)
(declare-fun |%{$(in_main#0)<$(in_rec_array_find_left#5)<rec_array_find_left.return>>}#3| () Int)
(define-fun .def_77 () Int (! !pc :next !pc.next))
(define-fun .def_80 () Bool (! (= .def_77 2) :init true))
(define-fun .def_392 () Bool (= .def_77 50))
(define-fun .def_119 () Bool (= !pc.next 0))
(define-fun .def_399 () Bool (and .def_119 .def_392))
(define-fun .def_12 () Int (! |!{$(in_main#0)<&array>}| :next |!{$(in_main#0)<&array>}.next|))
(define-fun .def_356 () Int (+ .def_12 |%{$(in_main#0)<$(in_rec_array_find_left#5)<rec_array_find_left.return>>}#3|))
(define-fun .def_14 () (Array Int Int) (! |!{%mem.0}| :next |!{%mem.0}.next|))
(define-fun .def_357 () Int (select .def_14 .def_356))
(define-fun .def_358 () Bool (= |!{$(in_main#0)<$(in___VERIFIER_nondet_int#4)<h#<__VERIFIER_nondet_int.return>>>}| .def_357))
(define-fun .def_359 () Int (ite .def_358 1 0))
(define-fun .def_360 () Bool (= .def_359 0))
(define-fun .def_361 () Bool (not .def_360))
(define-fun .def_351 () Bool (= |%{$(in_main#0)<$(in_rec_array_find_left#5)<rec_array_find_left.return>>}#3| (- 1)))
(define-fun .def_355 () Bool (not .def_351))
(define-fun .def_365 () Bool (and .def_355 .def_361))
(define-fun .def_370 () Bool (or .def_351 .def_365))
(define-fun .def_16 () Int (! |!{$(in_main#0)<k>}| :next |!{$(in_main#0)<k>}.next|))
(define-fun .def_115 () Bool (= .def_16 |!{$(in_main#0)<k>}.next|))
(define-fun .def_113 () Bool (= .def_12 |!{$(in_main#0)<&array>}.next|))
(define-fun .def_10 () Int (! |!{$(in_main#0)<N>}| :next |!{$(in_main#0)<N>}.next|))
(define-fun .def_110 () Bool (= .def_10 |!{$(in_main#0)<N>}.next|))
(define-fun .def_8 () Int (! |!{%memaddr}| :next |!{%memaddr}.next|))
(define-fun .def_109 () Bool (= .def_8 |!{%memaddr}.next|))
(define-fun .def_111 () Bool (and .def_109 .def_110))
(define-fun .def_98 () Bool (= .def_14 |!{%mem.0}.next|))
(define-fun .def_112 () Bool (and .def_98 .def_111))
(define-fun .def_114 () Bool (and .def_112 .def_113))
(define-fun .def_116 () Bool (and .def_114 .def_115))
(define-fun .def_389 () Bool (and .def_116 .def_370))
(define-fun .def_128 () Bool (<= 0 .def_10))
(define-fun .def_126 () Bool (<= .def_10 0))
(define-fun .def_127 () Bool (not .def_126))
(define-fun .def_129 () Bool (and .def_127 .def_128))
(define-fun .def_347 () Bool (not .def_129))
(define-fun .def_328 () Bool (= |!{$(in_main#0)<$(in_rec_array_find_left#5)<$temp.1>>}| |%{$(in_main#0)<$(in_rec_array_find_left#5)<$temp.1>>}#3|))
(define-fun .def_349 () Bool (and .def_328 .def_347))
(define-fun .def_334 () Bool (= |!{$(in_main#0)<$(in_rec_array_find_left#5)<$tmp>>}| |%{$(in_main#0)<$(in_rec_array_find_left#5)<$tmp>>}#3|))
(define-fun .def_350 () Bool (and .def_334 .def_349))
(define-fun .def_352 () Bool (and .def_350 .def_351))
(define-fun .def_341 () Bool (= |%{$(in_main#0)<$(in_rec_array_find_left#5)<$(in_rec_array_find_right#0)<rec_array_find_right.return>>>}#3| |%{$(in_main#0)<$(in_rec_array_find_left#5)<rec_array_find_left.return>>}#3|))
(define-fun .def_335 () Bool (= |%{$(in_main#0)<$(in_rec_array_find_left#5)<$(in_rec_array_find_right#0)<rec_array_find_right.return>>>}#3| |%{$(in_main#0)<$(in_rec_array_find_left#5)<$tmp>>}#3|))
(define-fun .def_329 () Bool (= |%{$(in_main#0)<$(in_rec_array_find_left#5)<$(in_rec_array_find_right#0)<rec_array_find_right.return>>>}#3| |%{$(in_main#0)<$(in_rec_array_find_left#5)<$temp.1>>}#3|))
(define-fun .def_318 () Bool (= |%{$(in_main#0)<$(in_rec_array_find_left#5)<$(in_rec_array_find_right#0)<rec_array_find_right.return>>>}#3| (- 1)))
(define-fun .def_136 () Bool (<= 1 .def_10))
(define-fun .def_133 () Bool (<= .def_10 1))
(define-fun .def_134 () Bool (not .def_133))
(define-fun .def_135 () Bool (and .def_127 .def_134))
(define-fun .def_137 () Bool (and .def_135 .def_136))
(define-fun .def_312 () Bool (not .def_137))
(define-fun .def_287 () Bool (= |!{$(in_main#0)<$(in_rec_array_find_left#5)<$(in_rec_array_find_right#0)<$temp.1>>>}| |%{$(in_main#0)<$(in_rec_array_find_left#5)<$(in_rec_array_find_right#0)<$temp.1>>>}#3|))
(define-fun .def_316 () Bool (and .def_287 .def_312))
(define-fun .def_293 () Bool (= |!{$(in_main#0)<$(in_rec_array_find_left#5)<$(in_rec_array_find_right#0)<$tmp>>>}| |%{$(in_main#0)<$(in_rec_array_find_left#5)<$(in_rec_array_find_right#0)<$tmp>>>}#3|))
(define-fun .def_317 () Bool (and .def_293 .def_316))
(define-fun .def_319 () Bool (and .def_317 .def_318))
(define-fun .def_304 () Bool (= |%{$(in_main#0)<$(in_rec_array_find_left#5)<$(in_rec_array_find_right#0)<$(in_rec_array_find_left#0)<rec_array_find_left.return>>>>}#3| |%{$(in_main#0)<$(in_rec_array_find_left#5)<$(in_rec_array_find_right#0)<rec_array_find_right.return>>>}#3|))
(define-fun .def_294 () Bool (= |%{$(in_main#0)<$(in_rec_array_find_left#5)<$(in_rec_array_find_right#0)<$(in_rec_array_find_left#0)<rec_array_find_left.return>>>>}#3| |%{$(in_main#0)<$(in_rec_array_find_left#5)<$(in_rec_array_find_right#0)<$tmp>>>}#3|))
(define-fun .def_288 () Bool (= |%{$(in_main#0)<$(in_rec_array_find_left#5)<$(in_rec_array_find_right#0)<$(in_rec_array_find_left#0)<rec_array_find_left.return>>>>}#3| |%{$(in_main#0)<$(in_rec_array_find_left#5)<$(in_rec_array_find_right#0)<$temp.1>>>}#3|))
(define-fun .def_273 () Bool (= |%{$(in_main#0)<$(in_rec_array_find_left#5)<$(in_rec_array_find_right#0)<$(in_rec_array_find_left#0)<rec_array_find_left.return>>>>}#3| (- 1)))
(define-fun .def_146 () Bool (<= 2 .def_10))
(define-fun .def_147 () Bool (and .def_134 .def_146))
(define-fun .def_265 () Bool (not .def_147))
(define-fun .def_242 () Bool (= |!{$(in_main#0)<$(in_rec_array_find_left#5)<$(in_rec_array_find_right#0)<$(in_rec_array_find_left#0)<$temp.1>>>>}| |%{$(in_main#0)<$(in_rec_array_find_left#5)<$(in_rec_array_find_right#0)<$(in_rec_array_find_left#0)<$temp.1>>>>}#3|))
(define-fun .def_271 () Bool (and .def_242 .def_265))
(define-fun .def_248 () Bool (= |!{$(in_main#0)<$(in_rec_array_find_left#5)<$(in_rec_array_find_right#0)<$(in_rec_array_find_left#0)<$tmp>>>>}| |%{$(in_main#0)<$(in_rec_array_find_left#5)<$(in_rec_array_find_right#0)<$(in_rec_array_find_left#0)<$tmp>>>>}#3|))
(define-fun .def_272 () Bool (and .def_248 .def_271))
(define-fun .def_274 () Bool (and .def_272 .def_273))
(define-fun .def_255 () Bool (= |%{$(in_main#0)<$(in_rec_array_find_left#5)<$(in_rec_array_find_right#0)<$(in_rec_array_find_left#0)<$(in_rec_array_find_right#0)<rec_array_find_right.return>>>>>}#3| |%{$(in_main#0)<$(in_rec_array_find_left#5)<$(in_rec_array_find_right#0)<$(in_rec_array_find_left#0)<rec_array_find_left.return>>>>}#3|))
(define-fun .def_249 () Bool (= |%{$(in_main#0)<$(in_rec_array_find_left#5)<$(in_rec_array_find_right#0)<$(in_rec_array_find_left#0)<$(in_rec_array_find_right#0)<rec_array_find_right.return>>>>>}#3| |%{$(in_main#0)<$(in_rec_array_find_left#5)<$(in_rec_array_find_right#0)<$(in_rec_array_find_left#0)<$tmp>>>>}#3|))
(define-fun .def_243 () Bool (= |%{$(in_main#0)<$(in_rec_array_find_left#5)<$(in_rec_array_find_right#0)<$(in_rec_array_find_left#0)<$(in_rec_array_find_right#0)<rec_array_find_right.return>>>>>}#3| |%{$(in_main#0)<$(in_rec_array_find_left#5)<$(in_rec_array_find_right#0)<$(in_rec_array_find_left#0)<$temp.1>>>>}#3|))
(define-fun .def_224 () Bool (= |%{$(in_main#0)<$(in_rec_array_find_left#5)<$(in_rec_array_find_right#0)<$(in_rec_array_find_left#0)<$(in_rec_array_find_right#0)<rec_array_find_right.return>>>>>}#3| (- 1)))
(define-fun .def_156 () Bool (<= 3 .def_10))
(define-fun .def_152 () Bool (<= .def_10 2))
(define-fun .def_153 () Bool (not .def_152))
(define-fun .def_154 () Bool (and .def_134 .def_153))
(define-fun .def_157 () Bool (and .def_154 .def_156))
(define-fun .def_214 () Bool (not .def_157))
(define-fun .def_185 () Bool (= |!{$(in_main#0)<$(in_rec_array_find_left#5)<$(in_rec_array_find_right#0)<$(in_rec_array_find_left#0)<$(in_rec_array_find_right#0)<$temp.1>>>>>}| |%{$(in_main#0)<$(in_rec_array_find_left#5)<$(in_rec_array_find_right#0)<$(in_rec_array_find_left#0)<$(in_rec_array_find_right#0)<$temp.1>>>>>}#3|))
(define-fun .def_222 () Bool (and .def_185 .def_214))
(define-fun .def_191 () Bool (= |!{$(in_main#0)<$(in_rec_array_find_left#5)<$(in_rec_array_find_right#0)<$(in_rec_array_find_left#0)<$(in_rec_array_find_right#0)<$tmp>>>>>}| |%{$(in_main#0)<$(in_rec_array_find_left#5)<$(in_rec_array_find_right#0)<$(in_rec_array_find_left#0)<$(in_rec_array_find_right#0)<$tmp>>>>>}#3|))
(define-fun .def_223 () Bool (and .def_191 .def_222))
(define-fun .def_225 () Bool (and .def_223 .def_224))
(define-fun .def_165 () Int (+ .def_10 (- 2)))
(define-fun .def_166 () Int (rec_array_find_left<0> .def_12 |!{$(in_main#0)<$(in___VERIFIER_nondet_int#4)<h#<__VERIFIER_nondet_int.return>>>}| 2 .def_165 .def_10))
(define-fun .def_202 () Bool (= .def_166 |%{$(in_main#0)<$(in_rec_array_find_left#5)<$(in_rec_array_find_right#0)<$(in_rec_array_find_left#0)<$(in_rec_array_find_right#0)<rec_array_find_right.return>>>>>}#3|))
(define-fun .def_192 () Bool (= .def_166 |%{$(in_main#0)<$(in_rec_array_find_left#5)<$(in_rec_array_find_right#0)<$(in_rec_array_find_left#0)<$(in_rec_array_find_right#0)<$tmp>>>>>}#3|))
(define-fun .def_186 () Bool (= .def_166 |%{$(in_main#0)<$(in_rec_array_find_left#5)<$(in_rec_array_find_right#0)<$(in_rec_array_find_left#0)<$(in_rec_array_find_right#0)<$temp.1>>>>>}#3|))
(define-fun .def_141 () Int (+ .def_10 .def_12))
(define-fun .def_161 () Int (+ .def_141 (- 2)))
(define-fun .def_162 () Int (select .def_14 .def_161))
(define-fun .def_163 () Bool (= |!{$(in_main#0)<$(in___VERIFIER_nondet_int#4)<h#<__VERIFIER_nondet_int.return>>>}| .def_162))
(define-fun .def_164 () Bool (not .def_163))
(define-fun .def_188 () Bool (and .def_164 .def_186))
(define-fun .def_194 () Bool (and .def_188 .def_192))
(define-fun .def_204 () Bool (and .def_194 .def_202))
(define-fun .def_199 () Int (* (- 1) |%{$(in_main#0)<$(in_rec_array_find_left#5)<$(in_rec_array_find_right#0)<$(in_rec_array_find_left#0)<$(in_rec_array_find_right#0)<rec_array_find_right.return>>>>>}#3|))
(define-fun .def_200 () Int (+ .def_10 .def_199))
(define-fun .def_201 () Bool (= .def_200 2))
(define-fun .def_187 () Bool (and .def_163 .def_185))
(define-fun .def_193 () Bool (and .def_187 .def_191))
(define-fun .def_203 () Bool (and .def_193 .def_201))
(define-fun .def_205 () Bool (or .def_203 .def_204))
(define-fun .def_206 () Bool (and .def_157 .def_205))
(define-fun .def_226 () Bool (or .def_206 .def_225))
(define-fun .def_148 () Int (+ .def_12 1))
(define-fun .def_149 () Int (select .def_14 .def_148))
(define-fun .def_150 () Bool (= |!{$(in_main#0)<$(in___VERIFIER_nondet_int#4)<h#<__VERIFIER_nondet_int.return>>>}| .def_149))
(define-fun .def_151 () Bool (not .def_150))
(define-fun .def_227 () Bool (and .def_151 .def_226))
(define-fun .def_245 () Bool (and .def_227 .def_243))
(define-fun .def_251 () Bool (and .def_245 .def_249))
(define-fun .def_257 () Bool (and .def_251 .def_255))
(define-fun .def_254 () Bool (= |%{$(in_main#0)<$(in_rec_array_find_left#5)<$(in_rec_array_find_right#0)<$(in_rec_array_find_left#0)<rec_array_find_left.return>>>>}#3| 1))
(define-fun .def_244 () Bool (and .def_150 .def_242))
(define-fun .def_250 () Bool (and .def_244 .def_248))
(define-fun .def_256 () Bool (and .def_250 .def_254))
(define-fun .def_258 () Bool (or .def_256 .def_257))
(define-fun .def_259 () Bool (and .def_147 .def_258))
(define-fun .def_275 () Bool (or .def_259 .def_274))
(define-fun .def_142 () Int (+ .def_141 (- 1)))
(define-fun .def_143 () Int (select .def_14 .def_142))
(define-fun .def_144 () Bool (= |!{$(in_main#0)<$(in___VERIFIER_nondet_int#4)<h#<__VERIFIER_nondet_int.return>>>}| .def_143))
(define-fun .def_145 () Bool (not .def_144))
(define-fun .def_276 () Bool (and .def_145 .def_275))
(define-fun .def_290 () Bool (and .def_276 .def_288))
(define-fun .def_296 () Bool (and .def_290 .def_294))
(define-fun .def_306 () Bool (and .def_296 .def_304))
(define-fun .def_301 () Int (* (- 1) |%{$(in_main#0)<$(in_rec_array_find_left#5)<$(in_rec_array_find_right#0)<rec_array_find_right.return>>>}#3|))
(define-fun .def_302 () Int (+ .def_10 .def_301))
(define-fun .def_303 () Bool (= .def_302 1))
(define-fun .def_289 () Bool (and .def_144 .def_287))
(define-fun .def_295 () Bool (and .def_289 .def_293))
(define-fun .def_305 () Bool (and .def_295 .def_303))
(define-fun .def_307 () Bool (or .def_305 .def_306))
(define-fun .def_308 () Bool (and .def_137 .def_307))
(define-fun .def_320 () Bool (or .def_308 .def_319))
(define-fun .def_130 () Int (select .def_14 .def_12))
(define-fun .def_131 () Bool (= |!{$(in_main#0)<$(in___VERIFIER_nondet_int#4)<h#<__VERIFIER_nondet_int.return>>>}| .def_130))
(define-fun .def_132 () Bool (not .def_131))
(define-fun .def_321 () Bool (and .def_132 .def_320))
(define-fun .def_331 () Bool (and .def_321 .def_329))
(define-fun .def_337 () Bool (and .def_331 .def_335))
(define-fun .def_343 () Bool (and .def_337 .def_341))
(define-fun .def_340 () Bool (= |%{$(in_main#0)<$(in_rec_array_find_left#5)<rec_array_find_left.return>>}#3| 0))
(define-fun .def_330 () Bool (and .def_131 .def_328))
(define-fun .def_336 () Bool (and .def_330 .def_334))
(define-fun .def_342 () Bool (and .def_336 .def_340))
(define-fun .def_344 () Bool (or .def_342 .def_343))
(define-fun .def_345 () Bool (and .def_129 .def_344))
(define-fun .def_353 () Bool (or .def_345 .def_352))
(define-fun .def_390 () Bool (and .def_353 .def_389))
(define-fun .def_121 () Bool (<= .def_10 .def_16))
(define-fun .def_391 () Bool (and .def_121 .def_390))
(define-fun .def_400 () Bool (and .def_391 .def_399))
(define-fun .def_395 () Bool (= !pc.next 254))
(define-fun .def_396 () Bool (and .def_392 .def_395))
(define-fun .def_381 () Bool (and .def_109 .def_360))
(define-fun .def_382 () Bool (and .def_110 .def_381))
(define-fun .def_383 () Bool (and .def_98 .def_382))
(define-fun .def_384 () Bool (and .def_113 .def_383))
(define-fun .def_385 () Bool (and .def_115 .def_384))
(define-fun .def_386 () Bool (and .def_355 .def_385))
(define-fun .def_387 () Bool (and .def_353 .def_386))
(define-fun .def_388 () Bool (and .def_121 .def_387))
(define-fun .def_397 () Bool (and .def_388 .def_396))
(define-fun .def_106 () Bool (= !pc.next 50))
(define-fun .def_393 () Bool (and .def_106 .def_392))
(define-fun .def_376 () Int (* (- 1) |!{$(in_main#0)<k>}.next|))
(define-fun .def_377 () Int (+ .def_16 .def_376))
(define-fun .def_378 () Bool (= .def_377 (- 1)))
(define-fun .def_123 () Int (+ .def_12 .def_16))
(define-fun .def_124 () (Array Int Int) (store .def_14 .def_123 |!{$(in_main#0)<$(in___VERIFIER_nondet_int#3)<h#<__VERIFIER_nondet_int.return>>>}|))
(define-fun .def_373 () Bool (= |!{%mem.0}.next| .def_124))
(define-fun .def_374 () Bool (and .def_111 .def_373))
(define-fun .def_375 () Bool (and .def_113 .def_374))
(define-fun .def_379 () Bool (and .def_375 .def_378))
(define-fun .def_122 () Bool (not .def_121))
(define-fun .def_380 () Bool (and .def_122 .def_379))
(define-fun .def_394 () Bool (and .def_380 .def_393))
(define-fun .def_398 () Bool (or .def_394 .def_397))
(define-fun .def_401 () Bool (or .def_398 .def_400))
(define-fun .def_107 () Bool (and .def_80 .def_106))
(define-fun .def_102 () Bool (= |!{$(in_main#0)<k>}.next| 0))
(define-fun .def_100 () Bool (= |!{$(in_main#0)<&array>}.next| 1))
(define-fun .def_96 () Bool (= |!{$(in_main#0)<N>}.next| |!{$(in_main#0)<$(in___VERIFIER_nondet_int#1)<h#<__VERIFIER_nondet_int.return>>>}|))
(define-fun .def_95 () Bool (= |!{%memaddr}.next| 2))
(define-fun .def_97 () Bool (and .def_95 .def_96))
(define-fun .def_99 () Bool (and .def_97 .def_98))
(define-fun .def_101 () Bool (and .def_99 .def_100))
(define-fun .def_103 () Bool (and .def_101 .def_102))
(define-fun .def_90 () Bool (<= |!{$(in_main#0)<$(in___VERIFIER_nondet_int#1)<h#<__VERIFIER_nondet_int.return>>>}| 0))
(define-fun .def_91 () Bool (not .def_90))
(define-fun .def_92 () Int (ite .def_91 1 0))
(define-fun .def_93 () Bool (= .def_92 0))
(define-fun .def_94 () Bool (not .def_93))
(define-fun .def_104 () Bool (and .def_94 .def_103))
(define-fun .def_108 () Bool (and .def_104 .def_107))
(define-fun .def_402 () Bool (! (or .def_108 .def_401) :trans true))
(define-fun .def_118 () Bool (= .def_77 254))
(define-fun .def_403 () Bool (! (not .def_118) :invar-property 0 :invar-property-name ||))
(assert true)
